(set-logic QF_LRA)
(declare-fun T1 () Real )
(declare-fun T2 () Real )
(declare-fun T3 () Real )
(declare-fun T4 () Real )
(declare-fun T5 () Real )
(declare-fun T6 () Real )
(declare-fun Z () Real )
(assert ( and 
(or ( <= ( + T1 75 ) T2 ) ( <= ( + T2 60 ) T1 ) )
(or ( <= ( + T1 88 )  ( + T2 60 ) ) ( <= ( + T2 90 )( + T1 75 ) ) )
(or ( <= ( + T1 92 )  ( + T2 90 ) ) ( <= ( + T2 160 )( + T1 88 ) ) )
(or ( <= ( + T1 103 )  ( + T2 160 ) ) ( <= ( + T2 218 )( + T1 92 ) ) )
(or ( <= ( + T1 122 )  ( + T2 218 ) ) ( <= ( + T2 317 )( + T1 103 ) ) )
(or ( <= ( + T1 191 )  ( + T2 317 ) ) ( <= ( + T2 352 )( + T1 122 ) ) )
(or ( <= ( + T1 289 )  ( + T2 352 ) ) ( <= ( + T2 415 )( + T1 191 ) ) )
(or ( <= ( + T1 387 )  ( + T2 415 ) ) ( <= ( + T2 511 )( + T1 289 ) ) )
(or ( <= ( + T1 75 ) T3 ) ( <= ( + T3 66 ) T1 ) )
(or ( <= ( + T1 88 )  ( + T3 66 ) ) ( <= ( + T3 85 )( + T1 75 ) ) )
(or ( <= ( + T1 92 )  ( + T3 85 ) ) ( <= ( + T3 100 )( + T1 88 ) ) )
(or ( <= ( + T1 103 )  ( + T3 100 ) ) ( <= ( + T3 155 )( + T1 92 ) ) )
(or ( <= ( + T1 122 )  ( + T3 155 ) ) ( <= ( + T3 232 )( + T1 103 ) ) )
(or ( <= ( + T1 191 )  ( + T3 232 ) ) ( <= ( + T3 298 )( + T1 122 ) ) )
(or ( <= ( + T1 289 )  ( + T3 298 ) ) ( <= ( + T3 329 )( + T1 191 ) ) )
(or ( <= ( + T1 387 )  ( + T3 329 ) ) ( <= ( + T3 417 )( + T1 289 ) ) )
(or ( <= ( + T1 75 ) T4 ) ( <= ( + T4 55 ) T1 ) )
(or ( <= ( + T1 88 )  ( + T4 55 ) ) ( <= ( + T4 112 )( + T1 75 ) ) )
(or ( <= ( + T1 92 )  ( + T4 112 ) ) ( <= ( + T4 135 )( + T1 88 ) ) )
(or ( <= ( + T1 103 )  ( + T4 135 ) ) ( <= ( + T4 174 )( + T1 92 ) ) )
(or ( <= ( + T1 122 )  ( + T4 174 ) ) ( <= ( + T4 183 )( + T1 103 ) ) )
(or ( <= ( + T1 191 )  ( + T4 183 ) ) ( <= ( + T4 241 )( + T1 122 ) ) )
(or ( <= ( + T1 289 )  ( + T4 241 ) ) ( <= ( + T4 305 )( + T1 191 ) ) )
(or ( <= ( + T1 387 )  ( + T4 305 ) ) ( <= ( + T4 341 )( + T1 289 ) ) )
(or ( <= ( + T1 75 ) T5 ) ( <= ( + T5 70 ) T1 ) )
(or ( <= ( + T1 88 )  ( + T5 70 ) ) ( <= ( + T5 137 )( + T1 75 ) ) )
(or ( <= ( + T1 92 )  ( + T5 137 ) ) ( <= ( + T5 183 )( + T1 88 ) ) )
(or ( <= ( + T1 103 )  ( + T5 183 ) ) ( <= ( + T5 224 )( + T1 92 ) ) )
(or ( <= ( + T1 122 )  ( + T5 224 ) ) ( <= ( + T5 259 )( + T1 103 ) ) )
(or ( <= ( + T1 191 )  ( + T5 259 ) ) ( <= ( + T5 302 )( + T1 122 ) ) )
(or ( <= ( + T1 289 )  ( + T5 302 ) ) ( <= ( + T5 340 )( + T1 191 ) ) )
(or ( <= ( + T1 387 )  ( + T5 340 ) ) ( <= ( + T5 434 )( + T1 289 ) ) )
(or ( <= ( + T1 75 ) T6 ) ( <= ( + T6 72 ) T1 ) )
(or ( <= ( + T1 88 )  ( + T6 72 ) ) ( <= ( + T6 131 )( + T1 75 ) ) )
(or ( <= ( + T1 92 )  ( + T6 131 ) ) ( <= ( + T6 135 )( + T1 88 ) ) )
(or ( <= ( + T1 103 )  ( + T6 135 ) ) ( <= ( + T6 158 )( + T1 92 ) ) )
(or ( <= ( + T1 122 )  ( + T6 158 ) ) ( <= ( + T6 251 )( + T1 103 ) ) )
(or ( <= ( + T1 191 )  ( + T6 251 ) ) ( <= ( + T6 317 )( + T1 122 ) ) )
(or ( <= ( + T1 289 )  ( + T6 317 ) ) ( <= ( + T6 335 )( + T1 191 ) ) )
(or ( <= ( + T1 387 )  ( + T6 335 ) ) ( <= ( + T6 345 )( + T1 289 ) ) )
(or ( <= ( + T2 60 ) T3 ) ( <= ( + T3 66 ) T2 ) )
(or ( <= ( + T2 90 )  ( + T3 66 ) ) ( <= ( + T3 85 )( + T2 60 ) ) )
(or ( <= ( + T2 160 )  ( + T3 85 ) ) ( <= ( + T3 100 )( + T2 90 ) ) )
(or ( <= ( + T2 218 )  ( + T3 100 ) ) ( <= ( + T3 155 )( + T2 160 ) ) )
(or ( <= ( + T2 317 )  ( + T3 155 ) ) ( <= ( + T3 232 )( + T2 218 ) ) )
(or ( <= ( + T2 352 )  ( + T3 232 ) ) ( <= ( + T3 298 )( + T2 317 ) ) )
(or ( <= ( + T2 415 )  ( + T3 298 ) ) ( <= ( + T3 329 )( + T2 352 ) ) )
(or ( <= ( + T2 511 )  ( + T3 329 ) ) ( <= ( + T3 417 )( + T2 415 ) ) )
(or ( <= ( + T2 60 ) T4 ) ( <= ( + T4 55 ) T2 ) )
(or ( <= ( + T2 90 )  ( + T4 55 ) ) ( <= ( + T4 112 )( + T2 60 ) ) )
(or ( <= ( + T2 160 )  ( + T4 112 ) ) ( <= ( + T4 135 )( + T2 90 ) ) )
(or ( <= ( + T2 218 )  ( + T4 135 ) ) ( <= ( + T4 174 )( + T2 160 ) ) )
(or ( <= ( + T2 317 )  ( + T4 174 ) ) ( <= ( + T4 183 )( + T2 218 ) ) )
(or ( <= ( + T2 352 )  ( + T4 183 ) ) ( <= ( + T4 241 )( + T2 317 ) ) )
(or ( <= ( + T2 415 )  ( + T4 241 ) ) ( <= ( + T4 305 )( + T2 352 ) ) )
(or ( <= ( + T2 511 )  ( + T4 305 ) ) ( <= ( + T4 341 )( + T2 415 ) ) )
(or ( <= ( + T2 60 ) T5 ) ( <= ( + T5 70 ) T2 ) )
(or ( <= ( + T2 90 )  ( + T5 70 ) ) ( <= ( + T5 137 )( + T2 60 ) ) )
(or ( <= ( + T2 160 )  ( + T5 137 ) ) ( <= ( + T5 183 )( + T2 90 ) ) )
(or ( <= ( + T2 218 )  ( + T5 183 ) ) ( <= ( + T5 224 )( + T2 160 ) ) )
(or ( <= ( + T2 317 )  ( + T5 224 ) ) ( <= ( + T5 259 )( + T2 218 ) ) )
(or ( <= ( + T2 352 )  ( + T5 259 ) ) ( <= ( + T5 302 )( + T2 317 ) ) )
(or ( <= ( + T2 415 )  ( + T5 302 ) ) ( <= ( + T5 340 )( + T2 352 ) ) )
(or ( <= ( + T2 511 )  ( + T5 340 ) ) ( <= ( + T5 434 )( + T2 415 ) ) )
(or ( <= ( + T2 60 ) T6 ) ( <= ( + T6 72 ) T2 ) )
(or ( <= ( + T2 90 )  ( + T6 72 ) ) ( <= ( + T6 131 )( + T2 60 ) ) )
(or ( <= ( + T2 160 )  ( + T6 131 ) ) ( <= ( + T6 135 )( + T2 90 ) ) )
(or ( <= ( + T2 218 )  ( + T6 135 ) ) ( <= ( + T6 158 )( + T2 160 ) ) )
(or ( <= ( + T2 317 )  ( + T6 158 ) ) ( <= ( + T6 251 )( + T2 218 ) ) )
(or ( <= ( + T2 352 )  ( + T6 251 ) ) ( <= ( + T6 317 )( + T2 317 ) ) )
(or ( <= ( + T2 415 )  ( + T6 317 ) ) ( <= ( + T6 335 )( + T2 352 ) ) )
(or ( <= ( + T2 511 )  ( + T6 335 ) ) ( <= ( + T6 345 )( + T2 415 ) ) )
(or ( <= ( + T3 66 ) T4 ) ( <= ( + T4 55 ) T3 ) )
(or ( <= ( + T3 85 )  ( + T4 55 ) ) ( <= ( + T4 112 )( + T3 66 ) ) )
(or ( <= ( + T3 100 )  ( + T4 112 ) ) ( <= ( + T4 135 )( + T3 85 ) ) )
(or ( <= ( + T3 155 )  ( + T4 135 ) ) ( <= ( + T4 174 )( + T3 100 ) ) )
(or ( <= ( + T3 232 )  ( + T4 174 ) ) ( <= ( + T4 183 )( + T3 155 ) ) )
(or ( <= ( + T3 298 )  ( + T4 183 ) ) ( <= ( + T4 241 )( + T3 232 ) ) )
(or ( <= ( + T3 329 )  ( + T4 241 ) ) ( <= ( + T4 305 )( + T3 298 ) ) )
(or ( <= ( + T3 417 )  ( + T4 305 ) ) ( <= ( + T4 341 )( + T3 329 ) ) )
(or ( <= ( + T3 66 ) T5 ) ( <= ( + T5 70 ) T3 ) )
(or ( <= ( + T3 85 )  ( + T5 70 ) ) ( <= ( + T5 137 )( + T3 66 ) ) )
(or ( <= ( + T3 100 )  ( + T5 137 ) ) ( <= ( + T5 183 )( + T3 85 ) ) )
(or ( <= ( + T3 155 )  ( + T5 183 ) ) ( <= ( + T5 224 )( + T3 100 ) ) )
(or ( <= ( + T3 232 )  ( + T5 224 ) ) ( <= ( + T5 259 )( + T3 155 ) ) )
(or ( <= ( + T3 298 )  ( + T5 259 ) ) ( <= ( + T5 302 )( + T3 232 ) ) )
(or ( <= ( + T3 329 )  ( + T5 302 ) ) ( <= ( + T5 340 )( + T3 298 ) ) )
(or ( <= ( + T3 417 )  ( + T5 340 ) ) ( <= ( + T5 434 )( + T3 329 ) ) )
(or ( <= ( + T3 66 ) T6 ) ( <= ( + T6 72 ) T3 ) )
(or ( <= ( + T3 85 )  ( + T6 72 ) ) ( <= ( + T6 131 )( + T3 66 ) ) )
(or ( <= ( + T3 100 )  ( + T6 131 ) ) ( <= ( + T6 135 )( + T3 85 ) ) )
(or ( <= ( + T3 155 )  ( + T6 135 ) ) ( <= ( + T6 158 )( + T3 100 ) ) )
(or ( <= ( + T3 232 )  ( + T6 158 ) ) ( <= ( + T6 251 )( + T3 155 ) ) )
(or ( <= ( + T3 298 )  ( + T6 251 ) ) ( <= ( + T6 317 )( + T3 232 ) ) )
(or ( <= ( + T3 329 )  ( + T6 317 ) ) ( <= ( + T6 335 )( + T3 298 ) ) )
(or ( <= ( + T3 417 )  ( + T6 335 ) ) ( <= ( + T6 345 )( + T3 329 ) ) )
(or ( <= ( + T4 55 ) T5 ) ( <= ( + T5 70 ) T4 ) )
(or ( <= ( + T4 112 )  ( + T5 70 ) ) ( <= ( + T5 137 )( + T4 55 ) ) )
(or ( <= ( + T4 135 )  ( + T5 137 ) ) ( <= ( + T5 183 )( + T4 112 ) ) )
(or ( <= ( + T4 174 )  ( + T5 183 ) ) ( <= ( + T5 224 )( + T4 135 ) ) )
(or ( <= ( + T4 183 )  ( + T5 224 ) ) ( <= ( + T5 259 )( + T4 174 ) ) )
(or ( <= ( + T4 241 )  ( + T5 259 ) ) ( <= ( + T5 302 )( + T4 183 ) ) )
(or ( <= ( + T4 305 )  ( + T5 302 ) ) ( <= ( + T5 340 )( + T4 241 ) ) )
(or ( <= ( + T4 341 )  ( + T5 340 ) ) ( <= ( + T5 434 )( + T4 305 ) ) )
(or ( <= ( + T4 55 ) T6 ) ( <= ( + T6 72 ) T4 ) )
(or ( <= ( + T4 112 )  ( + T6 72 ) ) ( <= ( + T6 131 )( + T4 55 ) ) )
(or ( <= ( + T4 135 )  ( + T6 131 ) ) ( <= ( + T6 135 )( + T4 112 ) ) )
(or ( <= ( + T4 174 )  ( + T6 135 ) ) ( <= ( + T6 158 )( + T4 135 ) ) )
(or ( <= ( + T4 183 )  ( + T6 158 ) ) ( <= ( + T6 251 )( + T4 174 ) ) )
(or ( <= ( + T4 241 )  ( + T6 251 ) ) ( <= ( + T6 317 )( + T4 183 ) ) )
(or ( <= ( + T4 305 )  ( + T6 317 ) ) ( <= ( + T6 335 )( + T4 241 ) ) )
(or ( <= ( + T4 341 )  ( + T6 335 ) ) ( <= ( + T6 345 )( + T4 305 ) ) )
(or ( <= ( + T5 70 ) T6 ) ( <= ( + T6 72 ) T5 ) )
(or ( <= ( + T5 137 )  ( + T6 72 ) ) ( <= ( + T6 131 )( + T5 70 ) ) )
(or ( <= ( + T5 183 )  ( + T6 131 ) ) ( <= ( + T6 135 )( + T5 137 ) ) )
(or ( <= ( + T5 224 )  ( + T6 135 ) ) ( <= ( + T6 158 )( + T5 183 ) ) )
(or ( <= ( + T5 259 )  ( + T6 158 ) ) ( <= ( + T6 251 )( + T5 224 ) ) )
(or ( <= ( + T5 302 )  ( + T6 251 ) ) ( <= ( + T6 317 )( + T5 259 ) ) )
(or ( <= ( + T5 340 )  ( + T6 317 ) ) ( <= ( + T6 335 )( + T5 302 ) ) )
(or ( <= ( + T5 434 )  ( + T6 335 ) ) ( <= ( + T6 345 )( + T5 340 ) ) )
( <= ( + T1 387 ) Z)
( <= ( + T2 511 ) Z)
( <= ( + T3 417 ) Z)
( <= ( + T4 341 ) Z)
( <= ( + T5 434 ) Z)
( <= ( + T6 345 ) Z)
( >= T1 0 )
( >= T2 0 )
( >= T3 0 )
( >= T4 0 )
( >= T5 0 )
( >= T6 0 )
) )
(minimize Z)
(check-sat)